s td 45 6 50
b 1 1 2 11
b 2 9 10 20
b 3 31 41 42
b 4 40 49 50
b 5 2 3 11 12
b 6 8 9 19 20
b 7 3 4 14 25 36 47
b 8 4 5 14 25 36 47
b 9 5 14 16 25 36 47
b 10 5 16 25 27 36 47
b 11 5 16 27 36 38 47
b 12 5 7 16 27 38 47
b 13 5 6 7 16
b 14 7 16 18 27 38 47
b 15 7 18 27 29 38 47
b 16 7 18 20 29 38 47
b 17 7 18 19 20 29
b 18 7 8 18 19 20
b 19 20 29 38 47 49
b 20 20 29 38 39 49
b 21 20 29 30 39 49
b 22 38 47 48 49
b 23 18 27 28 29 38
b 24 7 16 17 18 27
b 25 27 36 37 38 47
b 26 16 25 26 27 36
b 27 5 14 15 16 25
b 28 3 14 25 36 45 47
b 29 3 14 25 34 36 45
b 30 3 14 25 34 43 45
b 31 3 14 23 25 34 43
b 32 3 12 14 23 34 43
b 33 3 12 21 23 34 43
b 34 3 11 12 21
b 35 12 21 23 32 34 43
b 36 12 21 22 23 32
b 37 23 32 33 34 43
b 38 21 32 42 43
b 39 3 12 13 14 23
b 40 14 23 24 25 34
b 41 34 43 44 45
b 42 25 34 35 36 45
b 43 36 45 46 47
b 44 21 31 32 42
b 45 30 39 40 49
1 5
2 6
3 44
4 45
5 34
6 18
7 8
7 28
8 9
9 10
9 27
10 11
10 26
11 12
11 25
12 13
12 14
14 15
14 24
15 16
15 23
16 17
16 19
17 18
19 20
19 22
20 21
21 45
28 29
28 43
29 30
29 42
30 31
30 41
31 32
31 40
32 33
32 39
33 34
33 35
35 36
35 37
35 38
38 44
